Route #0: 109 54 130 134 24 29 121 3 77 68 80 150 116
Route #1: 1 122 30 20 128 66 71 65 136 35 135 34 78 129 79
Route #2: 117 42 142 15 43 14 119 44 38 140 86 141 16 61
Route #3: 18 106 48 82 83 45 125 17 113 84 5
Route #4: 69 101 70 32 131 90 63 126 108 10 62 148 88 31 127
Route #5: 6 96 99 104 59 93 98 85 91 100 37 92 97 95
Route #6: 110 4 25 55 139 39 67 23 56 75 72 21 40
Route #7: 132 51 103 9 120 81 33 102 50 76 12
Route #8: 137 2 115 87 144 57 145 41 22 133 74 73 149 26 138
Route #9: 146 7 123 19 107 11 64 49 143 36 47 124 46 8 114
Route #10: 53 105 58 13 94 60 118 147 89 52
Route #11: 28 111 27 112
Cost 1111.62013957001
Time 82
